% Generated FlatZinc statistics:
%%%mzn-stat: paths=0
%%%mzn-stat: flatBoolVars=467590
%%%mzn-stat: flatIntVars=162351
%%%mzn-stat: flatBoolConstraints=163660
%%%mzn-stat: flatIntConstraints=645481
%%%mzn-stat: evaluatedReifiedConstraints=466620
%%%mzn-stat: evaluatedHalfReifiedConstraints=314110
%%%mzn-stat: method="minimize"
%%%mzn-stat: flatTime=23.3982
%%%mzn-stat-end

agentAtTimeT = array2d(1..35, 1..10, [86, 106, 180, 97, 412, 168, 285, 380, 425, 217, 87, 123, 181, 114, 413, 169, 284, 379, 426, 216, 88, 140, 182, 129, 414, 189, 265, 378, 427, 194, 89, 159, 202, 149, 434, 190, 245, 363, 428, 193, 90, 160, 203, 168, 435, 191, 244, 345, 429, 192, 91, 161, 204, 167, 436, 192, 223, 344, 409, 215, 92, 182, 205, 188, 437, 193, 203, 326, 391, 214, 93, 183, 225, 210, 416, 194, 202, 325, 373, 213, 94, 203, 226, 209, 417, 216, 201, 324, 356, 212, 95, 223, 227, 229, 418, 236, 200, 323, 357, 211, 73, 244, 228, 249, 419, 255, 200, 322, 358, 210, 53, 264, 229, 268, 420, 256, 200, 321, 341, 209, 54, 265, 230, 289, 421, 256, 200, 320, 321, 208, 55, 266, 231, 288, 422, 256, 200, 319, 304, 207, 34, 285, 232, 305, 401, 256, 200, 318, 287, 186, 35, 302, 232, 304, 383, 256, 200, 317, 288, 186, 36, 319, 232, 303, 367, 256, 200, 338, 289, 186, 16, 320, 232, 302, 350, 256, 200, 337, 290, 186, 16, 321, 232, 319, 332, 256, 200, 336, 269, 186, 16, 322, 232, 339, 332, 256, 200, 335, 250, 186, 16, 323, 232, 356, 332, 256, 200, 353, 230, 186, 16, 324, 232, 373, 332, 256, 200, 370, 210, 186, 16, 325, 232, 391, 332, 256, 200, 370, 188, 186, 16, 326, 232, 409, 332, 256, 200, 370, 167, 186, 16, 327, 232, 409, 332, 256, 200, 370, 168, 186, 16, 328, 232, 409, 332, 256, 200, 370, 169, 186, 16, 329, 232, 409, 332, 256, 200, 370, 170, 186, 16, 329, 232, 409, 332, 256, 200, 370, 171, 186, 16, 329, 232, 409, 332, 256, 200, 370, 151, 186, 16, 329, 232, 409, 332, 256, 200, 370, 152, 186, 16, 329, 232, 409, 332, 256, 200, 370, 153, 186, 16, 329, 232, 409, 332, 256, 200, 370, 153, 186, 16, 329, 232, 409, 332, 256, 200, 370, 153, 186, 16, 329, 232, 409, 332, 256, 200, 370, 153, 186, 16, 329, 232, 409, 332, 256, 200, 370, 153, 186]);
ET = [18, 27, 15, 24, 19, 12, 10, 22, 31, 15];
objective = 193;
----------
==========
%%%mzn-stat: objective=193
%%%mzn-stat: objectiveBound=193
%%%mzn-stat: boolVariables=116124
%%%mzn-stat: failures=10924
%%%mzn-stat: propagations=24453307
%%%mzn-stat: solveTime=39.8853
%%%mzn-stat: nSolutions=1
%%%mzn-stat-end
